====================================================================================================================
File name: 200_40_133_15.def
Creation date: Mon Nov 24 20:40:31 CET 2014
Website: http://imopse.ii.pwr.edu.pl/
Reference:
Myszkowski P. B., Skowronski M. E., Olech L., Oslizlo K.,
Hybrid Ant Colony Optimization in solving Multi-Skill Resource-Constrained Project Scheduling Problem,
Soft Computing, DOI: DOI 10.1007/s00500-014-1455-x
====================================================================================================================
General characteristics:
Tasks: 200
Resources: 40
Precedence relations: 133
Number of skill types: 15
====================================================================================================================
ResourceID 	 Salary 	 Skills
1	 	 	19.2	 	 Q8: 0 	  Q13: 0 	  Q1: 2 	  Q14: 0 	  Q3: 2 	  Q7: 2
2	 	 	21.2	 	 Q9: 0 	  Q12: 2 	  Q2: 1 	  Q13: 1 	  Q3: 2 	  Q0: 1
3	 	 	38.0	 	 Q4: 0 	  Q7: 1 	  Q12: 0 	  Q3: 0 	  Q2: 2 	  Q0: 2
4	 	 	70.0	 	 Q10: 0 	  Q1: 2 	  Q6: 0 	  Q12: 0 	  Q2: 2 	  Q3: 1
5	 	 	81.9	 	 Q8: 1 	  Q5: 1 	  Q13: 0 	  Q14: 0 	  Q10: 2 	  Q9: 0
6	 	 	33.2	 	 Q5: 2 	  Q2: 0 	  Q6: 2 	  Q0: 2 	  Q7: 2 	  Q13: 2
7	 	 	67.8	 	 Q10: 2 	  Q7: 0 	  Q13: 1 	  Q12: 0 	  Q8: 2 	  Q0: 0
8	 	 	19.3	 	 Q2: 1 	  Q13: 1 	  Q7: 0 	  Q5: 1 	  Q14: 0 	  Q10: 0
9	 	 	73.5	 	 Q4: 1 	  Q5: 0 	  Q9: 2 	  Q14: 1 	  Q8: 1 	  Q1: 1
10	 	 	38.4	 	 Q4: 0 	  Q0: 0 	  Q1: 0 	  Q2: 0 	  Q5: 0 	  Q13: 0
11	 	 	18.8	 	 Q9: 0 	  Q1: 1 	  Q6: 2 	  Q0: 0 	  Q12: 1 	  Q11: 1
12	 	 	77.3	 	 Q4: 0 	  Q8: 0 	  Q11: 2 	  Q0: 1 	  Q14: 0 	  Q7: 1
13	 	 	91.4	 	 Q12: 1 	  Q5: 1 	  Q11: 1 	  Q8: 1 	  Q2: 0 	  Q1: 2
14	 	 	85.3	 	 Q5: 0 	  Q2: 0 	  Q10: 1 	  Q4: 0 	  Q14: 1 	  Q1: 2
15	 	 	26.4	 	 Q13: 0 	  Q8: 1 	  Q5: 1 	  Q14: 1 	  Q2: 2 	  Q9: 2
16	 	 	73.1	 	 Q2: 0 	  Q11: 2 	  Q8: 1 	  Q12: 0 	  Q10: 2 	  Q14: 0
17	 	 	92.6	 	 Q4: 0 	  Q5: 2 	  Q9: 1 	  Q3: 0 	  Q7: 0 	  Q12: 1
18	 	 	93.7	 	 Q0: 0 	  Q12: 2 	  Q3: 0 	  Q14: 1 	  Q10: 1 	  Q13: 2
19	 	 	71.6	 	 Q8: 0 	  Q11: 1 	  Q14: 0 	  Q3: 2 	  Q12: 2 	  Q10: 0
20	 	 	71.8	 	 Q9: 1 	  Q13: 1 	  Q2: 0 	  Q12: 2 	  Q10: 1 	  Q6: 0
21	 	 	64.2	 	 Q14: 1 	  Q0: 1 	  Q8: 1 	  Q11: 1 	  Q7: 0 	  Q10: 2
22	 	 	79.1	 	 Q6: 2 	  Q7: 0 	  Q3: 1 	  Q5: 1 	  Q0: 1 	  Q10: 2
23	 	 	42.2	 	 Q10: 0 	  Q14: 0 	  Q0: 0 	  Q7: 0 	  Q12: 1 	  Q3: 2
24	 	 	79.9	 	 Q5: 2 	  Q13: 2 	  Q3: 0 	  Q6: 1 	  Q14: 2 	  Q12: 2
25	 	 	60.6	 	 Q14: 0 	  Q1: 1 	  Q11: 1 	  Q6: 1 	  Q12: 2 	  Q10: 1
26	 	 	87.8	 	 Q7: 0 	  Q1: 2 	  Q9: 0 	  Q6: 1 	  Q3: 0 	  Q2: 2
27	 	 	56.4	 	 Q4: 2 	  Q2: 1 	  Q6: 0 	  Q7: 0 	  Q10: 2 	  Q1: 0
28	 	 	38.4	 	 Q2: 2 	  Q4: 0 	  Q6: 2 	  Q9: 0 	  Q7: 2 	  Q14: 1
29	 	 	17.4	 	 Q0: 0 	  Q8: 1 	  Q12: 1 	  Q13: 2 	  Q9: 1 	  Q6: 0
30	 	 	24.0	 	 Q7: 0 	  Q12: 1 	  Q2: 2 	  Q11: 0 	  Q4: 0 	  Q14: 2
31	 	 	41.3	 	 Q0: 2 	  Q8: 2 	  Q10: 2 	  Q12: 2 	  Q7: 2 	  Q3: 0
32	 	 	93.2	 	 Q12: 0 	  Q2: 1 	  Q1: 0 	  Q7: 0 	  Q14: 2 	  Q10: 1
33	 	 	31.3	 	 Q4: 1 	  Q3: 2 	  Q11: 0 	  Q5: 0 	  Q13: 1 	  Q2: 0
34	 	 	53.9	 	 Q5: 2 	  Q6: 1 	  Q9: 0 	  Q13: 1 	  Q3: 1 	  Q4: 0
35	 	 	65.1	 	 Q12: 0 	  Q14: 0 	  Q1: 2 	  Q2: 0 	  Q5: 2 	  Q11: 0
36	 	 	66.8	 	 Q7: 2 	  Q1: 0 	  Q14: 2 	  Q5: 0 	  Q9: 0 	  Q3: 2
37	 	 	23.3	 	 Q2: 1 	  Q11: 2 	  Q4: 2 	  Q10: 0 	  Q9: 1 	  Q13: 2
38	 	 	17.5	 	 Q10: 2 	  Q13: 0 	  Q8: 2 	  Q14: 1 	  Q7: 0 	  Q1: 1
39	 	 	81.5	 	 Q7: 0 	  Q8: 0 	  Q1: 1 	  Q0: 2 	  Q14: 0 	  Q9: 1
40	 	 	92.8	 	 Q9: 0 	  Q13: 1 	  Q5: 1 	  Q8: 1 	  Q7: 1 	  Q4: 0
====================================================================================================================
TaskID 	 Duration 	 Skill 	 Predecessor IDs
1	 	 	10	 Q0: 2
2	 	 	39	 Q9: 0
3	 	 	22	 Q14: 2
4	 	 	19	 Q8: 0
5	 	 	31	 Q1: 1
6	 	 	39	 Q8: 0
7	 	 	30	 Q0: 2
8	 	 	17	 Q1: 1
9	 	 	25	 Q13: 0
10	 	 	26	 Q9: 0
11	 	 	11	 Q1: 0
12	 	 	16	 Q3: 2
13	 	 	20	 Q0: 0
14	 	 	39	 Q12: 2
15	 	 	19	 Q14: 0
16	 	 	35	 Q13: 0	 	8
17	 	 	27	 Q12: 2	 	7
18	 	 	9	 Q3: 1
19	 	 	13	 Q13: 2	 	7
20	 	 	15	 Q1: 1
21	 	 	25	 Q1: 2
22	 	 	13	 Q14: 1
23	 	 	35	 Q11: 1
24	 	 	19	 Q12: 1
25	 	 	31	 Q0: 1
26	 	 	37	 Q14: 2	 	18
27	 	 	30	 Q13: 0
28	 	 	38	 Q14: 1	 	24	18
29	 	 	29	 Q10: 0
30	 	 	28	 Q11: 1
31	 	 	40	 Q12: 2
32	 	 	12	 Q9: 2
33	 	 	16	 Q13: 2	 	21
34	 	 	35	 Q6: 1
35	 	 	23	 Q1: 2
36	 	 	25	 Q9: 0	 	14	30	10
37	 	 	37	 Q0: 1
38	 	 	12	 Q11: 2
39	 	 	15	 Q2: 1
40	 	 	21	 Q5: 1
41	 	 	23	 Q5: 0
42	 	 	32	 Q5: 0
43	 	 	17	 Q6: 2
44	 	 	24	 Q3: 1
45	 	 	21	 Q9: 0
46	 	 	40	 Q14: 1	 	26
47	 	 	25	 Q8: 1
48	 	 	12	 Q6: 0
49	 	 	35	 Q12: 1
50	 	 	33	 Q4: 0
51	 	 	14	 Q8: 0
52	 	 	18	 Q5: 2
53	 	 	25	 Q3: 1	 	22	52
54	 	 	32	 Q10: 2
55	 	 	11	 Q10: 1
56	 	 	37	 Q5: 2
57	 	 	33	 Q10: 0
58	 	 	10	 Q14: 1
59	 	 	11	 Q6: 2
60	 	 	18	 Q9: 1
61	 	 	29	 Q14: 1
62	 	 	36	 Q2: 1
63	 	 	14	 Q5: 0	 	58
64	 	 	28	 Q14: 2
65	 	 	34	 Q12: 1
66	 	 	25	 Q0: 1
67	 	 	11	 Q4: 0
68	 	 	20	 Q10: 1
69	 	 	25	 Q6: 2
70	 	 	12	 Q11: 2
71	 	 	40	 Q0: 2	 	50
72	 	 	23	 Q14: 2
73	 	 	22	 Q13: 0	 	2	39
74	 	 	34	 Q8: 1	 	48
75	 	 	17	 Q11: 2
76	 	 	29	 Q6: 2
77	 	 	29	 Q3: 1	 	22
78	 	 	19	 Q11: 1
79	 	 	37	 Q2: 0
80	 	 	27	 Q0: 2	 	68
81	 	 	35	 Q8: 1
82	 	 	25	 Q6: 1
83	 	 	36	 Q7: 2
84	 	 	19	 Q4: 1	 	53
85	 	 	33	 Q5: 0	 	42
86	 	 	28	 Q9: 1
87	 	 	26	 Q0: 0
88	 	 	32	 Q11: 1
89	 	 	15	 Q1: 2	 	5
90	 	 	10	 Q14: 2	 	60	88	26
91	 	 	31	 Q5: 0
92	 	 	9	 Q9: 2	 	21
93	 	 	33	 Q1: 0
94	 	 	12	 Q4: 1	 	91
95	 	 	30	 Q11: 1	 	70	49
96	 	 	23	 Q6: 1
97	 	 	23	 Q0: 2	 	37	25
98	 	 	34	 Q6: 2	 	16	26	32
99	 	 	19	 Q1: 0
100	 	 	18	 Q4: 2	 	22
101	 	 	15	 Q7: 2
102	 	 	18	 Q13: 2
103	 	 	40	 Q3: 2
104	 	 	25	 Q5: 2
105	 	 	25	 Q13: 1	 	63	32
106	 	 	18	 Q13: 0
107	 	 	28	 Q10: 0
108	 	 	31	 Q7: 1
109	 	 	32	 Q10: 1
110	 	 	38	 Q7: 1	 	5
111	 	 	26	 Q14: 0
112	 	 	39	 Q11: 1	 	52	95	35
113	 	 	30	 Q11: 0
114	 	 	25	 Q7: 0
115	 	 	24	 Q1: 0	 	37
116	 	 	11	 Q11: 1	 	1
117	 	 	37	 Q0: 0
118	 	 	15	 Q8: 0
119	 	 	30	 Q6: 2	 	46	113
120	 	 	32	 Q11: 1	 	38
121	 	 	16	 Q1: 2
122	 	 	23	 Q11: 0
123	 	 	31	 Q10: 2
124	 	 	36	 Q11: 0
125	 	 	33	 Q0: 2	 	54	60	4
126	 	 	20	 Q1: 1	 	59	94
127	 	 	13	 Q6: 1	 	41
128	 	 	40	 Q7: 2	 	36
129	 	 	34	 Q8: 1
130	 	 	13	 Q12: 2	 	118	105
131	 	 	31	 Q8: 0	 	37	102
132	 	 	40	 Q12: 2	 	84
133	 	 	12	 Q0: 2
134	 	 	34	 Q4: 2
135	 	 	21	 Q4: 2
136	 	 	19	 Q6: 0
137	 	 	38	 Q1: 2	 	90
138	 	 	32	 Q11: 1	 	66
139	 	 	19	 Q5: 0	 	39	14	17
140	 	 	26	 Q10: 0
141	 	 	16	 Q8: 0	 	91	34	95
142	 	 	39	 Q11: 0	 	101	28
143	 	 	36	 Q11: 1	 	41	31	100
144	 	 	26	 Q4: 0	 	18	45
145	 	 	9	 Q1: 1
146	 	 	22	 Q14: 1
147	 	 	30	 Q12: 2	 	43
148	 	 	14	 Q9: 2	 	141	103
149	 	 	22	 Q5: 0	 	84
150	 	 	10	 Q1: 1
151	 	 	25	 Q1: 2
152	 	 	11	 Q10: 2
153	 	 	16	 Q8: 2
154	 	 	28	 Q3: 0	 	131	110
155	 	 	15	 Q13: 2	 	6
156	 	 	29	 Q8: 0	 	65
157	 	 	14	 Q13: 0	 	58	48	63	54
158	 	 	20	 Q5: 2	 	146
159	 	 	29	 Q14: 1
160	 	 	19	 Q10: 1
161	 	 	21	 Q0: 0
162	 	 	29	 Q7: 0	 	114
163	 	 	26	 Q10: 1	 	69	46
164	 	 	29	 Q0: 2	 	57
165	 	 	27	 Q3: 2	 	36	75
166	 	 	14	 Q9: 0	 	68	6
167	 	 	13	 Q4: 1	 	121	56
168	 	 	29	 Q10: 2
169	 	 	34	 Q11: 2	 	34
170	 	 	25	 Q6: 0
171	 	 	36	 Q9: 1
172	 	 	23	 Q10: 2	 	38
173	 	 	16	 Q14: 2	 	25
174	 	 	39	 Q1: 0
175	 	 	28	 Q1: 1	 	101
176	 	 	38	 Q13: 1	 	102
177	 	 	28	 Q11: 2	 	124
178	 	 	38	 Q3: 2
179	 	 	39	 Q11: 1	 	140	54
180	 	 	33	 Q11: 2	 	51
181	 	 	23	 Q1: 0
182	 	 	30	 Q7: 0	 	15
183	 	 	35	 Q14: 0	 	4	161
184	 	 	14	 Q9: 0	 	58	169
185	 	 	14	 Q8: 0
186	 	 	21	 Q10: 2	 	13	45	66	93
187	 	 	38	 Q0: 0
188	 	 	18	 Q14: 2
189	 	 	29	 Q13: 1
190	 	 	34	 Q1: 2	 	61	105	52
191	 	 	31	 Q2: 1	 	168
192	 	 	33	 Q1: 1	 	137	18	80
193	 	 	9	 Q6: 1	 	52
194	 	 	39	 Q14: 1	 	172
195	 	 	14	 Q6: 1
196	 	 	24	 Q8: 2	 	109
197	 	 	30	 Q12: 2	 	172	55
198	 	 	12	 Q11: 2	 	57	11	188	1
199	 	 	29	 Q8: 0	 	16
200	 	 	13	 Q5: 1	 	31
====================================================================================================================
